TCS_Benchmarks/redos_fix/corpus3_output_distinct_2401_2400_1_0.smt2
(set-logic QF_S)
(declare-const x String)
(assert (str.in.re x (re.inter  (re.++ (re.* (re.union (re.range "\u{00}" "\u{09}") (re.range "\u{0b}" "\u{0c}") (re.range "\u{0e}" "\u{84}") (re.range "\u{86}" "\u{ff}")) ) (re.+  (re.union (re.range "\u{41}" "\u{46}") (re.union (re.range "\u{61}" "\u{66}") (re.range "\u{30}" "\u{39}"))) ))  (re.++ (re.* (re.union (re.range "\u{00}" "\u{09}") (re.range "\u{0b}" "\u{0c}") (re.range "\u{0e}" "\u{84}") (re.range "\u{86}" "\u{ff}")) ) (re.++  (re.++  (str.to.re "\u{2e}") (re.++  (str.to.re "\u{78}") (re.++  (str.to.re "\u{76}") (re.++  (str.to.re "\u{69}") (re.++  (str.to.re "\u{64}") (re.++  (str.to.re "\u{65}") (re.++  (str.to.re "\u{6f}") (re.++  (str.to.re "\u{73}") (re.++ (re.union (re.range "\u{00}" "\u{09}") (re.range "\u{0b}" "\u{0c}") (re.range "\u{0e}" "\u{84}") (re.range "\u{86}" "\u{ff}")) (re.++  (str.to.re "\u{63}") (re.++  (str.to.re "\u{6f}") (re.++  (str.to.re "\u{6d}") (re.++  (str.to.re "\u{2f}") (re.++  (str.to.re "\u{76}") (re.++  (str.to.re "\u{69}") (re.++  (str.to.re "\u{64}") (re.++  (str.to.re "\u{65}") (re.++  (str.to.re "\u{6f}") (re.++  (str.to.re "\u{73}") (re.++  (str.to.re "\u{2f}") (re.++  (str.to.re "\u{74}") (re.++  (str.to.re "\u{68}") (re.++  (str.to.re "\u{75}") (re.++  (str.to.re "\u{6d}") (re.++  (str.to.re "\u{62}") (re.++  (str.to.re "\u{73}")  (str.to.re "\u{2f}"))))))))))))))))))))))))))) (re.+  (re.union (re.range "\u{41}" "\u{46}") (re.union (re.range "\u{61}" "\u{66}") (re.range "\u{30}" "\u{39}"))) ))) )))
(check-sat)
(get-model)