TCS_Benchmarks/redos_fix/corpus3_output_distinct_2401_2400_1_0.txt
(.*)([A-Fa-f0-9]+)
(.*)(\.xvideos.com\/videos\/thumbs\/)([A-Fa-f0-9]+)